(declare-fun $V74_X$2 () Bool)
(declare-fun $V87_First$2 () Int)
(declare-fun $V79_Sofar$2 () Bool)
(declare-fun $etat1$0 () Bool)
(declare-fun $V31_env$2 () Bool)
(declare-fun $a_init$0 () Int)
(declare-fun $OK$2 () Bool)
(declare-fun $V26_i$2 () Int)
(declare-fun $etat3$0 () Bool)
(declare-fun $etat2$0 () Bool)

(assert (let ((a!1 (and (not $etat1$0) (not (and $etat2$0 $etat3$0)) (> $a_init$0 0))))
(let ((a!2 (and (= $OK$2 (or (not a!1) (>= 0 0)))
                (= $V31_env$2 a!1)
                (= $V26_i$2 0)
                (= $V79_Sofar$2 (not (and $etat2$0 $etat3$0)))
                (= $V87_First$2 $a_init$0)
                (= $V74_X$2 (not (and $etat2$0 $etat3$0))))))
  (ite (and $etat2$0 $etat3$0)
       a!2
       (ite (or (not $etat2$0) (not $etat3$0)) a!2 true)))))
(check-sat)
